p cnf 9 39
1 2 3 0
4 5 6 0
7 8 9 0
-1 -4 0
-2 -5 0
-3 -6 0
-1 -7 0
-2 -8 0
-3 -9 0
-4 -1 0
-5 -2 0
-6 -3 0
-4 -7 0
-5 -8 0
-6 -9 0
-7 -1 0
-8 -2 0
-9 -3 0
-7 -4 0
-8 -5 0
-9 -6 0
-1 -2 0
-4 -5 0
-7 -8 0
-1 -3 0
-4 -6 0
-7 -9 0
-2 -1 0
-5 -4 0
-8 -7 0
-2 -3 0
-5 -6 0
-8 -9 0
-3 -1 0
-6 -4 0
-9 -7 0
-3 -2 0
-6 -5 0
-9 -8 0
